
Gurobi 13.0.1 (win64) logging started Fri Apr 10 03:54:54 2026

Set parameter LogFile to value "C:\Users\jiho\code\cloud_vmp_optimization\experiments\2604-chance-2sp-toy\results\runs\chance_2sp_toy_24vm_combination_od_bj_od12_sp0_bj12_sc10_cap8_avg20_lam010\solver.log"
Set parameter Threads to value 8
Gurobi Optimizer version 13.0.1 build v13.0.1rc0 (win64 - Windows 11+.0 (26200.2))

CPU model: 13th Gen Intel(R) Core(TM) i9-13900K, instruction set [SSE2|AVX|AVX2]
Thread count: 24 physical cores, 32 logical processors, using up to 8 threads

Non-default parameters:
TimeLimit  7200
MIPGap  0.001
Threads  8

Optimize a model with 63117 rows, 55825 columns and 681819 nonzeros (Min)
Model fingerprint: 0xdf659ae7
Model has 266 linear objective coefficients
Variable types: 1680 continuous, 54145 integer (54145 binary)
Coefficient statistics:
  Matrix range     [2e-02, 3e+01]
  Objective range  [8e-03, 1e+00]
  Bounds range     [1e+00, 1e+00]
  RHS range        [1e-01, 1e+00]

Presolve removed 21333 rows and 5280 columns
Presolve time: 3.85s
Presolved: 41784 rows, 50545 columns, 637007 nonzeros
Variable types: 0 continuous, 50545 integer (50545 binary)
Found heuristic solution: objective 8.6916667
Found heuristic solution: objective 8.1583333
Found heuristic solution: objective 7.3333333
Deterministic concurrent LP optimizer: primal simplex, dual simplex, and barrier
Showing barrier log only...

Root barrier log...

Ordering time: 0.97s

Barrier statistics:
 Dense cols : 5
 AA' NZ     : 1.058e+06
 Factor NZ  : 3.005e+06 (roughly 60 MB of memory)
 Factor Ops : 1.750e+09 (less than 1 second per iteration)
 Threads    : 6

                  Objective                Residual
Iter       Primal          Dual         Primal    Dual     Compl     Time
   0   8.01945349e+00 -2.41848488e+01  1.36e+02 7.34e-05  3.47e-02     5s
   1   7.78699002e+00 -4.07651423e+01  3.11e-01 6.39e-04  5.36e-04     6s
   2   6.87098225e+00  6.28308244e-01  1.01e-14 2.84e-05  5.11e-05     6s
   3   4.28635626e+00  2.60050378e+00  6.13e-14 1.55e-06  1.26e-05     6s
   4   4.01478273e+00  3.04219420e+00  3.64e-14 4.82e-18  7.23e-06     6s
   5   3.91684594e+00  3.38835410e+00  3.41e-14 1.90e-15  3.90e-06     6s
   6   3.85324684e+00  3.67847061e+00  8.69e-14 4.11e-15  1.28e-06     6s
   7   3.81354911e+00  3.80314166e+00  6.73e-13 1.58e-15  7.49e-08     6s
   8   3.81182071e+00  3.81180038e+00  3.32e-13 3.14e-15  1.45e-10     6s
   9   3.81181881e+00  3.81181881e+00  4.08e-13 2.88e-14  1.47e-16     6s

Barrier solved model in 9 iterations and 6.02 seconds (3.87 work units)
Optimal objective 3.81181881e+00


Root crossover log...

    2077 DPushes remaining with DInf 0.0000000e+00                 6s
       0 DPushes remaining with DInf 0.0000000e+00                 6s

   48005 PPushes remaining with PInf 0.0000000e+00                 6s
    8685 PPushes remaining with PInf 0.0000000e+00                10s
       0 PPushes remaining with PInf 0.0000000e+00                12s

  Push phase complete: Pinf 0.0000000e+00, Dinf 3.9205206e-11     12s


Root simplex log...

Iteration    Objective       Primal Inf.    Dual Inf.      Time
   48919    3.8118188e+00   0.000000e+00   0.000000e+00     12s
Crossover time: 5.79 seconds (9.41 work units)
Concurrent spin time: 2.69s (can be avoided by choosing Method=3)

Solved with barrier

Root relaxation: objective 3.811819e+00, 48919 iterations, 10.46 seconds (10.88 work units)

    Nodes    |    Current Node    |     Objective Bounds      |     Work
 Expl Unexpl |  Obj  Depth IntInf | Incumbent    BestBd   Gap | It/Node Time

     0     0    3.81182    0 3350    7.33333    3.81182  48.0%     -   85s
H    0     0                       6.1666667    3.81182  38.2%     -   85s
H    0     0                       6.1416667    3.81182  37.9%     -   85s
     0     0    3.81182    0 2631    6.14167    3.81182  37.9%     -  120s
H    0     0                       6.0500000    3.81182  37.0%     -  120s
H    0     0                       6.0416667    3.81182  36.9%     -  131s
H    0     0                       6.0000000    3.81182  36.5%     -  131s
H    0     0                       5.0000000    3.81182  23.8%     -  131s
     0     0    3.81182    0 1689    5.00000    3.81182  23.8%     -  176s
     0     0    3.81182    0 1002    5.00000    3.81182  23.8%     -  195s
     0     0    4.00000    0  638    5.00000    4.00000  20.0%     -  198s
     0     0    4.00000    0  758    5.00000    4.00000  20.0%     -  216s
     0     0    4.00000    0  826    5.00000    4.00000  20.0%     -  218s
     0     0    4.00000    0  842    5.00000    4.00000  20.0%     -  218s
     0     0    4.00000    0  893    5.00000    4.00000  20.0%     -  219s
     0     0    4.00000    0  396    5.00000    4.00000  20.0%     -  225s
     0     0    4.00000    0  412    5.00000    4.00000  20.0%     -  226s
     0     0    4.00000    0  439    5.00000    4.00000  20.0%     -  227s
     0     0    4.00000    0  382    5.00000    4.00000  20.0%     -  230s
     0     0    4.00000    0  412    5.00000    4.00000  20.0%     -  231s
     0     0    4.00000    0  524    5.00000    4.00000  20.0%     -  232s
     0     0    4.00000    0  376    5.00000    4.00000  20.0%     -  235s
     0     0    4.00000    0  376    5.00000    4.00000  20.0%     -  235s
     0     0    4.00000    0  337    5.00000    4.00000  20.0%     -  237s
     0     2    4.00000    0  337    5.00000    4.00000  20.0%     -  243s
     3     8    4.00000    2  596    5.00000    4.00000  20.0%   837  245s
    23    58    4.00000    5  763    5.00000    4.00000  20.0%  2237  254s
    57    88    4.00000    7  759    5.00000    4.00000  20.0%  1524  263s
    87    96    4.00000    9  665    5.00000    4.00000  20.0%  1266  274s
    95   104    4.00000   10  602    5.00000    4.00000  20.0%  1214  293s
   103   112    4.00000   11  602    5.00000    4.00000  20.0%  1164  312s
   111   407    4.00000   12  605    5.00000    4.00000  20.0%  1130  338s
   406  1643    4.00000   25  366    5.00000    4.00000  20.0%   595  389s
  1642  2663    4.00000  136  358    5.00000    4.00000  20.0%   391  418s
  2662  3468    4.00000  208  315    5.00000    4.00000  20.0%   344  440s
  3467  4165    4.00000  273  297    5.00000    4.00000  20.0%   321  458s
  4164  4694    4.00000  333  340    5.00000    4.00000  20.0%   309  475s
  4693  5206    4.00000  384  292    5.00000    4.00000  20.0%   307  491s
  5205  5779    4.00156  435  442    5.00000    4.00000  20.0%   306  506s
  5778  6209    4.00000  500  324    5.00000    4.00000  20.0%   302  521s
  6208  6595    4.00000  531  350    5.00000    4.00000  20.0%   305  536s
  6594  6920    4.00000  560  355    5.00000    4.00000  20.0%   310  555s
  6919  7296    4.00000  597  335    5.00000    4.00000  20.0%   309  572s
  7296  7297    4.00000  390 1689    5.00000    4.00000  20.0%   314  647s
  7298  7298    4.00000  483  399    5.00000    4.00000  20.0%   314  652s
  7299  7299    4.00000  620  432    5.00000    4.00000  20.0%   314  657s
  7300  7300    4.00000  232  476    5.00000    4.00000  20.0%   314  661s
  7301  7300    4.00000  135  405    5.00000    4.00000  20.0%   314  669s
  7302  7301    4.00000  585  424    5.00000    4.00000  20.0%   314  671s
  7303  7302    4.00280  456  420    5.00000    4.00000  20.0%   314  679s
  7304  7302    4.00000   15  421    5.00000    4.00000  20.0%   314  681s
  7305  7303    4.00000  534  384    5.00000    4.00000  20.0%   313  689s
  7306  7304    4.00000   85  412    5.00000    4.00000  20.0%   313  691s
  7307  7304    4.00000  766  377    5.00000    4.00000  20.0%   313  698s
  7308  7305    4.00000  623  420    5.00000    4.00000  20.0%   313  700s
  7309  7306    4.00000  250  355    5.00000    4.00000  20.0%   313  707s
  7311  7307    4.00000  438  377    5.00000    4.00000  20.0%   313  719s
  7312  7308    4.00000  662  419    5.00000    4.00000  20.0%   313  721s
  7313  7308    4.00000  563  548    5.00000    4.00000  20.0%   313  732s
  7315  7310    4.00000  540  376    5.00000    4.00000  20.0%   313  761s
  7317  7311    4.00000   88  442    5.00000    4.00000  20.0%   313  773s
  7318  7312    4.00000   12  340    5.00000    4.00000  20.0%   313  777s
  7319  7312    4.00000  301  340    5.00000    4.00000  20.0%   313  800s
  7322  7319    4.00000   14  514    5.00000    4.00000  20.0%   343  805s
  7334  7331    4.00000   16  491    5.00000    4.00000  20.0%   347  814s
  7342  7434    4.00000   17  460    5.00000    4.00000  20.0%   351  825s
  7447  7443    4.00000   23  349    5.00000    4.00000  20.0%   365  838s
  7491  7533    4.00000   26  442    5.00000    4.00000  20.0%   367  855s
  7596  7761    4.00000   34  333    5.00000    4.00000  20.0%   371  886s
  7859  7742    4.00000   34  346    5.00000    4.00000  20.0%   393  918s
  7928  7935    4.00000   35  329    5.00000    4.00000  20.0%   398  963s
  8144  8410    4.00000   35  346    5.00000    4.00000  20.0%   417 1034s
  8691  9137    4.00000   64  329    5.00000    4.00000  20.0%   456 1108s
  9600  9012    4.00000  120  313    5.00000    4.00000  20.0%   503 1158s
  9778  9066    4.00000  165  307    5.00000    4.00000  20.0%   515 1208s
  9891  9228    4.00000  188  320    5.00000    4.00000  20.0%   525 1268s
 10091  9423    4.00000  227  315    5.00000    4.00000  20.0%   537 1331s
 10353 10250    4.00000  262  316    5.00000    4.00000  20.0%   551 1411s
 11267 10625    4.00000  298  311    5.00000    4.00000  20.0%   589 1481s
 11947 11054    4.00000  330  307    5.00000    4.00000  20.0%   615 1548s
 12602 11341    4.00000  351  404    5.00000    4.00000  20.0%   637 1602s
 13110 11180    4.00012  396  318    5.00000    4.00000  20.0%   651 1627s
 13118 11185    4.00000  396  275    5.00000    4.00000  20.0%   651 1658s
 13126 11191    4.00000  397  285    5.00000    4.00000  20.0%   652 1686s
 13134 11270    4.00000  397  390    5.00000    4.00000  20.0%   652 1724s
 13216 11675    4.00000  398  287    5.00000    4.00000  20.0%   656 1775s
 13648 11773    4.00000  424  256    5.00000    4.00000  20.0%   666 1809s
 13890 11751    4.00000  444  277    5.00000    4.00000  20.0%   671 1841s
 13949 11771    4.00000  445  275    5.00000    4.00000  20.0%   673 1879s
 13989 12156    4.00000  445  355    5.00000    4.00000  20.0%   674 1936s
 14387 12533    4.00000  446  394    5.00000    4.00000  20.0%   686 2001s
 14900 12987    4.00000  446  280    5.00000    4.00000  20.0%   701 2078s
 15525 13355    4.00000  477  315    5.00000    4.00000  20.0%   718 2126s
 16101 13644    4.00000  517  437    5.00000    4.00000  20.0%   732 2183s
 16582 13946    4.00000  545  433    5.00000    4.00000  20.0%   741 2234s
 17044 14332    4.00000  569  300    5.00000    4.00000  20.0%   749 2284s
 17584 14655    4.00000  609  328    5.00000    4.00000  20.0%   759 2328s
 18087 14981    4.00000  641  316    5.00000    4.00000  20.0%   767 2379s
 18581 15298    4.00000  659  332    5.00000    4.00000  20.0%   774 2430s
 19063 15691    4.00000  689  339    5.00000    4.00000  20.0%   781 2477s
 19616 16112    4.00000  731  327    5.00000    4.00000  20.0%   787 2537s
 20222 16448    4.00000  765  337    5.00000    4.00000  20.0%   793 2595s
 20760 16839    4.00000  788  339    5.00000    4.00000  20.0%   799 2650s
 21332 17259    4.00000  819  320    5.00000    4.00000  20.0%   806 2715s
 21943 17739    4.00000  850  331    5.00000    4.00000  20.0%   815 2782s
 22626 18128    4.00000  882  318    5.00000    4.00000  20.0%   821 2846s
 23243 18555    4.01710  917  555    5.00000    4.00000  20.0%   829 2910s
 23884 18777    4.00000  955  322    5.00000    4.00000  20.0%   835 2979s
 24319 19339    4.00000  981  338    5.00000    4.00000  20.0%   840 3049s
 25026 19844    4.00000 1017  362    5.00000    4.00000  20.0%   846 3126s
 25767 20370    4.00000 1059  329    5.00000    4.00000  20.0%   852 3210s
 26540 20120    4.00000 1111  324    5.00000    4.00000  20.0%   859 3249s
 26548 20147    4.00004 1111  345    5.00000    4.00000  20.0%   859 3287s
 26577 20531    4.00000 1112  329    5.00000    4.00000  20.0%   860 3362s
 26971 21146    4.00000 1146  320    5.00000    4.00000  20.0%   864 3451s
 27717 21855    4.00000 1203  303    5.00000    4.00000  20.0%   872 3527s
 28675 22328    4.00848 1277  499    5.00000    4.00000  20.0%   878 3621s
 29467 23556    4.00734 1333  384    5.00000    4.00000  20.0%   884 3864s
 30893 24055    4.00000 1414  339    5.00000    4.00000  20.0%   891 3937s
 31392 24996    4.00000 1450  344    5.00000    4.00000  20.0%   894 4030s
 32339 25854    4.00053 1507  439    5.00000    4.00000  20.0%   899 4109s
 33199 26739    4.00000 1552  330    5.00000    4.00000  20.0%   905 4181s
 34084 27576    4.00000 1613  347    5.00000    4.00000  20.0%   910 4263s
 34921 28367    4.01112 1660  605    5.00000    4.00000  20.0%   915 4346s
 35712 29272    4.00000 1693  342    5.00000    4.00000  20.0%   920 4432s
 36619 30139    4.00000 1740  348    5.00000    4.00000  20.0%   924 4504s
 37488 30969    4.00000 1781  348    5.00000    4.00000  20.0%   926 4587s
 38320 31764    4.00000 1823  347    5.00000    4.00000  20.0%   930 4671s
 39117 32678    4.00000 1869  335    5.00000    4.00000  20.0%   933 4752s
 40031 33449    4.00000 1921  341    5.00000    4.00000  20.0%   936 4817s
 40802 33951    4.00000 1956  335    5.00000    4.00000  20.0%   940 4867s
 41306 34474    4.00000 1994  351    5.00000    4.00000  20.0%   941 4931s
 41829 34738    4.00000 2029  353    5.00000    4.00000  20.0%   944 4976s
 42093 34746    4.00000 2046  351    5.00000    4.00000  20.0%   944 5011s
 42101 35063    4.00000 2046  342    5.00000    4.00000  20.0%   945 5066s
 42418 35071    4.00000 2047  352    5.00000    4.00000  20.0%   945 5111s
 42426 35079    4.00833 2047  396    5.00000    4.00000  20.0%   945 5151s
 42434 35087    4.00000 2048  350    5.00000    4.00000  20.0%   946 5195s
 42442 35185    4.00000 2048  358    5.00000    4.00000  20.0%   946 5244s
 42540 35302    4.00000 2094  348    5.00000    4.00000  20.0%   946 5309s
 42657 35441    4.00000 2149  357    5.00000    4.00000  20.0%   947 5371s
 42798 35602    4.00000 2186  349    5.00000    4.00000  20.0%   948 5425s
 42959 35897    4.00000 2225  368    5.00000    4.00000  20.0%   949 5503s
 43256 36487    4.00000 2263  382    5.00000    4.00000  20.0%   950 5582s
 43846 36998    4.00000 2322  360    5.00000    4.00000  20.0%   953 5663s
 44357 38015    4.00000 2352  360    5.00000    4.00000  20.0%   955 5788s
 45376 38822    4.00000 2423  351    5.00000    4.00000  20.0%   960 5898s
 46183 39688    4.00000 2482  365    5.00000    4.00000  20.0%   964 6011s
 47049 39696    4.00000 2540  359    5.00000    4.00000  20.0%   967 6066s
 47057 39704    4.00644 2540  412    5.00000    4.00000  20.0%   967 6109s
 47065 39802    4.00000 2541  361    5.00000    4.00000  20.0%   967 6162s
 47163 40250    4.00000 2541  388    5.00000    4.00000  20.0%   967 6247s
 47611 41267    4.00000 2542  360    5.00000    4.00000  20.0%   968 6356s
 48630 42338    4.00000 2583  371    5.00000    4.00000  20.0%   973 6449s
 49705 43332    4.00833 2637  484    5.00000    4.00000  20.0%   978 6543s
 50701 44371    4.00000 2680  361    5.00000    4.00000  20.0%   982 6641s
 51740 45208    4.00000 2729  387    5.00000    4.00000  20.0%   986 6775s
 52577 46313    4.01291 2780  567    5.00000    4.00000  20.0%   989 6853s
 53682 47410    4.00000 2832  351    5.00000    4.00000  20.0%   993 6947s
 54779 48251    4.00000 2877  373    5.00000    4.00000  20.0%   997 7029s
 55000 48251    4.00712 3616  545    5.00000    4.00000  20.0%   998 7030s
 55620 49297    4.00000 2907  358    5.00000    4.00000  20.0%   998 7134s
 56666 50295    4.00000 2947  379    5.00000    4.00000  20.0%  1002 7200s

Cutting planes:
  Cover: 651
  Clique: 8
  MIR: 321
  StrongCG: 334
  Flow cover: 302
  GUB cover: 73
  Zero half: 2
  RLT: 17

Explored 57664 nodes (58168848 simplex iterations) in 7200.24 seconds (10157.38 work units)
Thread count was 8 (of 32 available processors)

Solution count 9: 5 6 6.04167 ... 8.69167

Time limit reached
Best objective 5.000000000000e+00, best bound 4.000000000000e+00, gap 20.0000%
